2967
1309
1132
2461
2666
2009
2698
1695
666
3014
1775
1004
1649
2296
2365
3023
351
2022
3202
2109
1453
3335
2291
814
2860
1203
1262
1369
128
1587
2052
2285
1943
2830
1625
1366
2751
2051
2171
1015
1923
1516
1801
3613
2342
2014
1820
2505
1159
1579
2541
1506
2607
385
1176
2239
3396
1412
2008
3099
1244
2676
207
1507
3185
3440
3230
1565
2222
2403
622
2101
1604
2504
2976
2747
2364
1959
3144
2258

53162
13135
5550
31959
41371
36027
37992
23236
8584
49473
24064
12514
14342
33752
34407

1542
381
161
927
1200
1045
1102
674
249
1435
698
363
416
979
998

2434

127
32
14
77
99
86
91
56
21
118
58
30
35
81
83
137
5
90
148
84
47
134
105
23
121
25
36
45
3
55
57
108
96
135
66
50
96
89
68
7
71
26
66
133
68
95
46
121
53
48
119
66
89
3
54
104
144
58
74
147
19
89
3
32
137
132
137
77
95
106
5
73
32
100
105
127
108
58
121
109
